(set-logic QF_S)
(declare-fun var0 () String)
(assert (str.in.re var0 (re.++ (re.+ (re.union (str.to.re "00") (str.to.re "1"))) (re.++ (re.union (re.* (str.to.re "2")) (re.union (str.to.re "333") (str.to.re "4"))) (re.++ (re.* (re.+ (str.to.re "555"))) (re.++ (re.* (re.+ (str.to.re "66"))) (re.++ (re.* (re.+ (str.to.re "7"))) (re.++ (re.union (re.union (str.to.re "888") (str.to.re "999")) (re.union (str.to.re "aaa") (str.to.re "bbb"))) (re.++ (re.* (re.union (str.to.re "ccc") (str.to.re "dd"))) (re.++ (re.+ (re.* (str.to.re "ee"))) (re.++ (re.union (re.union (str.to.re "ff") (str.to.re "gg")) (re.* (str.to.re "hhh"))) (re.union (re.union (str.to.re "ii") (str.to.re "jjj")) (re.* (str.to.re "kk"))))))))))))))
(assert (<= 76 (str.len var0)))
(check-sat)